=1
=2
=0IBM ILOG CPLEX   42.1.0 cb854401 Feb 1, 2023           LEG x86 64bit/Linux    
=1
--- GAMS/Cplex licensed for continuous and discrete problems.
=2
=C
=1
=CReading parameter(s) from "/storage/home/ejm6426/scratch/scRBA/parameterization/kapp/datasets/Yu2021_chemoClimNH4_010_using_rtRBA_methods/min_flux_violation/cplex.opt"
=C>>  optcr = 1E-12
=C>>  optca = 1E-12
=C>>  eprhs = 1E-9
=C>> 
=CFinished reading from "/storage/home/ejm6426/scratch/scRBA/parameterization/kapp/datasets/Yu2021_chemoClimNH4_010_using_rtRBA_methods/min_flux_violation/cplex.opt"
=2
=C
=1
--- GMO setup time: 0.00s
=2
=1
--- Space for names approximately 0.48 Mb
=2
=1
--- Use option 'names no' to turn use of names off
=2
=1
--- GMO memory 5.78 Mb (peak 5.86 Mb)
=2
=1
--- Dictionary memory 0.00 Mb
=2
=1
--- Cplex 22.1.1.0 link memory 0.26 Mb (peak 1.90 Mb)
=2
=1
--- Starting Cplex
=2
=C
Version identifier: 22.1.1.0 | 2022-11-28 | 9160aff4d
CPXPARAM_Advance                                 2
CPXPARAM_Threads                                 1
CPXPARAM_MIP_Display                             4
CPXPARAM_MIP_Pool_Capacity                       0
CPXPARAM_Simplex_Limits_Iterations               1000000
CPXPARAM_Simplex_Tolerances_Feasibility          1.0000000000000001e-09
CPXPARAM_TimeLimit                               1000000
CPXPARAM_MIP_Tolerances_AbsMIPGap                9.9999999999999998e-13
CPXPARAM_MIP_Tolerances_MIPGap                   9.9999999999999998e-13
Tried aggregator 1 time.
LP Presolve eliminated 2207 rows and 6775 columns.
Aggregator did 1358 substitutions.
Reduced LP has 1036 rows, 2551 columns, and 20727 nonzeros.
Presolve time = 0.07 sec. (18.28 ticks)

Iteration log . . .
Iteration:     1   Dual objective     = -311674280374.346069
Iteration:    75   Dual objective     =   -4708070636.242913
Iteration:   157   Dual objective     =        788293.145263
Iteration:   251   Dual objective     =       1236960.220859
Iteration:   339   Dual objective     =       1343821.896149
Removing shift (6).
Dual superbasis exists (6).
=C
=1
--- LP status (3): infeasible.
=2
=1
--- Cplex Time: 0.11sec (det. 82.26 ticks)

=2
=C
=CModel has been proven infeasible
=C
